* ENCODING=ISO-8859-1
NAME          CPLEX
ROWS
 N  obj1    
 G  c1      
 G  c2      
 G  c3      
 G  c4      
 G  c5      
 G  c6      
 G  c7      
 G  c8      
 G  c9      
 G  c10     
 G  c11     
 G  c12     
 G  c13     
 G  c14     
 G  c15     
 G  c16     
 G  c17     
 G  c18     
 G  c19     
 G  c20     
 G  c21     
 G  c22     
 G  c23     
 G  c24     
 G  c25     
 G  c26     
 G  c27     
 G  c28     
 G  c29     
 G  c30     
 G  c31     
 G  c32     
 G  c33     
 G  c34     
 G  c35     
 G  c36     
 G  c37     
 G  c38     
 G  c39     
 G  c40     
 G  c41     
 G  c42     
 G  c43     
 G  c44     
 G  c45     
 G  c46     
 G  c47     
 G  c48     
 G  c49     
 G  c50     
COLUMNS
    MARK0000  'MARKER'                 'INTORG'
    x1        obj1                            1
    x1        c3                            159
    x1        c28                           215
    x1        c43                           201
    x1        c49                           564
    x2        obj1                            1
    x2        c2                            469
    x2        c28                           976
    x2        c29                           947
    x2        c44                           942
    x3        obj1                            1
    x3        c11                           384
    x3        c13                           240
    x3        c15                           978
    x3        c19                           771
    x3        c21                           742
    x3        c32                           191
    x3        c35                           569
    x3        c46                           241
    x4        obj1                            1
    x4        c2                            795
    x4        c8                            662
    x4        c16                           687
    x4        c27                           715
    x4        c38                           174
    x5        obj1                            1
    x5        c3                            379
    x5        c32                           417
    x5        c41                           593
    x5        c49                           357
    x6        obj1                            1
    x6        c22                           211
    x6        c28                           799
    x6        c32                           156
    x7        obj1                            1
    x7        c6                            338
    x7        c19                           188
    x7        c22                           769
    x7        c24                           403
    x7        c47                           301
    x8        obj1                            1
    x8        c2                            682
    x8        c4                            107
    x8        c5                            449
    x9        obj1                            1
    x9        c9                            847
    x9        c10                           712
    x9        c15                           117
    x9        c28                           761
    x9        c37                           528
    x9        c43                           936
    x9        c46                           273
    x9        c48                           444
    x10       obj1                            1
    x10       c7                            927
    x10       c16                           325
    x10       c26                           640
    x10       c27                           608
    x10       c36                           210
    x11       obj1                            1
    x11       c1                            168
    x11       c8                            144
    x11       c17                           845
    x11       c44                           218
    x12       obj1                            1
    x12       c4                            234
    x12       c12                           288
    x12       c24                           223
    x12       c30                           800
    x12       c35                           280
    x12       c48                           645
    x13       obj1                            1
    x13       c9                            101
    x13       c11                           587
    x13       c17                           327
    x13       c20                           261
    x13       c21                           199
    x13       c22                           514
    x13       c26                           462
    x14       obj1                            1
    x14       c3                            850
    x14       c8                            611
    x14       c21                           427
    x14       c34                           615
    x14       c40                           812
    x14       c42                           634
    x14       c48                           511
    x15       obj1                            1
    x15       c2                            565
    x15       c14                           429
    x15       c18                           761
    x15       c31                           342
    x15       c35                           884
    x15       c39                           212
    x15       c40                           723
    x16       obj1                            1
    x16       c14                           953
    x16       c23                           470
    x16       c36                           591
    x16       c46                           386
    x16       c48                           449
    x16       c50                           769
    x17       obj1                            1
    x17       c1                            885
    x17       c15                           767
    x18       obj1                            1
    x18       c3                            144
    x18       c12                           272
    x18       c24                           394
    x19       obj1                            1
    x19       c1                            232
    x19       c8                            259
    x19       c22                           832
    x19       c23                           684
    x19       c45                           499
    x20       obj1                            1
    x20       c13                           236
    x20       c19                           989
    x20       c44                           455
    x21       obj1                            1
    x21       c7                            681
    x21       c11                           587
    x21       c14                           351
    x21       c24                           360
    x21       c39                           747
    x21       c49                           587
    x22       obj1                            1
    x22       c28                           654
    x22       c50                           774
    x23       obj1                            1
    x23       c13                           577
    x24       obj1                            1
    x24       c6                            572
    x24       c12                           943
    x24       c24                           487
    x24       c27                           753
    x24       c31                           617
    x24       c39                           250
    x24       c42                           308
    x25       obj1                            1
    x25       c22                           813
    x25       c44                           554
    x26       obj1                            1
    x26       c15                           408
    x26       c17                           523
    x26       c18                           379
    x26       c19                           525
    x26       c20                           595
    x26       c26                           682
    x26       c29                           655
    x26       c49                           342
    x27       obj1                            1
    x27       c2                            304
    x27       c4                            444
    x27       c17                           724
    x27       c18                           957
    x27       c20                           908
    x27       c33                           652
    x27       c46                           954
    x28       obj1                            1
    x28       c5                            721
    x28       c17                           416
    x28       c18                           899
    x28       c31                           706
    x28       c37                           191
    x29       obj1                            1
    x29       c8                            529
    x29       c19                           318
    x29       c29                           500
    x29       c45                           427
    x30       obj1                            1
    x30       c6                            439
    x30       c20                           167
    x30       c33                           588
    x30       c37                           567
    x30       c42                           866
    x31       obj1                            1
    x31       c9                            755
    x31       c45                           500
    x31       c47                           532
    x32       obj1                            1
    x32       c10                           191
    x32       c13                           682
    x32       c18                           805
    x32       c36                           434
    x32       c44                           557
    x33       obj1                            1
    x33       c5                            591
    x33       c14                           360
    x33       c17                           644
    x33       c21                           109
    x33       c36                           436
    x33       c41                           655
    x34       obj1                            1
    x34       c9                            790
    x34       c17                           647
    x34       c30                           646
    x34       c33                           433
    x34       c34                           721
    x34       c35                           519
    x35       obj1                            1
    x35       c16                           312
    x35       c23                           517
    x35       c33                           257
    x35       c39                           755
    x36       obj1                            1
    x36       c15                           591
    x36       c25                           887
    x36       c45                           503
    x37       obj1                            1
    x37       c28                           883
    x37       c47                           436
    x38       obj1                            1
    x38       c7                            588
    x38       c23                           230
    x38       c34                           205
    x38       c39                           481
    x38       c45                           658
    x39       obj1                            1
    x39       c19                           362
    x39       c36                           430
    x39       c37                           628
    x39       c39                           638
    x39       c45                           614
    x40       obj1                            1
    x40       c1                            391
    x40       c15                           779
    x40       c18                           197
    x40       c19                           746
    x40       c33                           414
    x41       obj1                            1
    x41       c43                           665
    x42       obj1                            1
    x42       c10                           579
    x42       c20                           738
    x42       c21                           438
    x42       c26                           292
    x42       c47                           163
    x42       c49                           548
    x43       obj1                            1
    x43       c5                            427
    x43       c9                            585
    x43       c13                           821
    x43       c14                           992
    x43       c15                           894
    x43       c27                           269
    x43       c35                           997
    x43       c40                           158
    x44       obj1                            1
    x44       c13                           990
    x44       c14                           532
    x44       c18                           618
    x44       c38                           841
    x44       c44                           826
    x45       obj1                            1
    x45       c13                           675
    x45       c30                           531
    x45       c34                           382
    x45       c48                           829
    x46       obj1                            1
    x46       c2                            712
    x46       c5                            505
    x46       c25                           877
    x46       c35                           312
    x46       c41                           759
    x47       obj1                            1
    x47       c1                            359
    x47       c6                            542
    x47       c8                            489
    x47       c20                           556
    x47       c25                           170
    x47       c28                           607
    x47       c34                           129
    x47       c50                           743
    x48       obj1                            1
    x48       c31                           463
    x48       c46                           825
    x48       c50                           244
    x49       obj1                            1
    x49       c2                            960
    x49       c23                           484
    x49       c24                           586
    x49       c32                           669
    x49       c34                           556
    x49       c36                           510
    x49       c39                           363
    x49       c41                           164
    x50       obj1                            1
    x50       c16                           495
    x50       c20                           810
    x50       c24                           111
    x50       c38                           204
    x50       c48                           903
    MARK0001  'MARKER'                 'INTEND'
RHS
    rhs       c1                           1018
    rhs       c2                           2244
    rhs       c3                            766
    rhs       c4                            393
    rhs       c5                           1347
    rhs       c6                            946
    rhs       c7                           1098
    rhs       c8                           1347
    rhs       c9                           1539
    rhs       c10                           741
    rhs       c11                           779
    rhs       c12                           752
    rhs       c13                          2111
    rhs       c14                          1809
    rhs       c15                          2267
    rhs       c16                           910
    rhs       c17                          2063
    rhs       c18                          2308
    rhs       c19                          1950
    rhs       c20                          2018
    rhs       c21                           958
    rhs       c22                          1570
    rhs       c23                          1193
    rhs       c24                          1282
    rhs       c25                           967
    rhs       c26                          1038
    rhs       c27                          1173
    rhs       c28                          2448
    rhs       c29                          1051
    rhs       c30                           989
    rhs       c31                          1064
    rhs       c32                           717
    rhs       c33                          1172
    rhs       c34                          1304
    rhs       c35                          1781
    rhs       c36                          1306
    rhs       c37                           957
    rhs       c38                           610
    rhs       c39                          1723
    rhs       c40                           847
    rhs       c41                          1086
    rhs       c42                           904
    rhs       c43                           901
    rhs       c44                          1776
    rhs       c45                          1601
    rhs       c46                          1340
    rhs       c47                           716
    rhs       c48                          1891
    rhs       c49                          1199
    rhs       c50                          1265
BOUNDS
 LI bnd       x1        0
 LI bnd       x2        0
 LI bnd       x3        0
 LI bnd       x4        0
 LI bnd       x5        0
 LI bnd       x6        0
 LI bnd       x7        0
 LI bnd       x8        0
 LI bnd       x9        0
 LI bnd       x10       0
 LI bnd       x11       0
 LI bnd       x12       0
 LI bnd       x13       0
 LI bnd       x14       0
 LI bnd       x15       0
 LI bnd       x16       0
 LI bnd       x17       0
 LI bnd       x18       0
 LI bnd       x19       0
 LI bnd       x20       0
 LI bnd       x21       0
 LI bnd       x22       0
 LI bnd       x23       0
 LI bnd       x24       0
 LI bnd       x25       0
 LI bnd       x26       0
 LI bnd       x27       0
 LI bnd       x28       0
 LI bnd       x29       0
 LI bnd       x30       0
 LI bnd       x31       0
 LI bnd       x32       0
 LI bnd       x33       0
 LI bnd       x34       0
 LI bnd       x35       0
 LI bnd       x36       0
 LI bnd       x37       0
 LI bnd       x38       0
 LI bnd       x39       0
 LI bnd       x40       0
 LI bnd       x41       0
 LI bnd       x42       0
 LI bnd       x43       0
 LI bnd       x44       0
 LI bnd       x45       0
 LI bnd       x46       0
 LI bnd       x47       0
 LI bnd       x48       0
 LI bnd       x49       0
 LI bnd       x50       0
ENDATA
